-1 -1 -1 -1 -1 -1 -1 -1 -1 -1 -1 -1 -1 -1 -1 -1 -1 -1 -1 -1 -1 -1 -1 -1 -1 -1 -1 0 -1 -1 -1 -1 -1 -1 -1 -1 -1 -1 -1 -1 -1 -1 -1 -1 -1 -1 -1 -1 -1 -1 -1 -1 -1 -1 -1 -1 -1 -1 -1 -1 -1 -1 -1 -1
-1 -1 -1 -1 -1 -1 -1 -1 -1 -1 -1 -1 -1 -1 -1 -1 -1 -1 -1 -1 -1 -1 -1 -1 -1 -1 -1 0 1 -1 -1 -1 -1 -1 -1 -1 -1 -1 -1 -1 -1 -1 -1 -1 -1 -1 -1 -1 -1 -1 -1 -1 -1 -1 -1 -1 -1 -1 -1 -1 -1 -1 -1 -1
-1 -1 -1 -1 -1 -1 -1 -1 -1 -1 -1 -1 -1 -1 -1 -1 -1 -1 -1 -1 -1 -1 -1 -1 -1 -1 -1 0 1 -1 -1 -1 -1 -1 -1 2 -1 -1 -1 -1 -1 -1 -1 -1 -1 -1 -1 -1 -1 -1 -1 -1 -1 -1 -1 -1 -1 -1 -1 -1 -1 -1 -1 -1
-1 -1 -1 -1 -1 -1 -1 -1 -1 -1 -1 -1 -1 -1 -1 -1 -1 -1 -1 -1 -1 -1 -1 -1 -1 -1 -1 0 1 -1 -1 -1 -1 -1 -1 2 3 -1 -1 -1 -1 -1 -1 -1 -1 -1 -1 -1 -1 -1 -1 -1 -1 -1 -1 -1 -1 -1 -1 -1 -1 -1 -1 -1
-1 -1 -1 -1 -1 -1 -1 -1 -1 -1 -1 -1 -1 -1 -1 -1 -1 -1 -1 3 -1 -1 -1 -1 -1 -1 -1 0 1 -1 -1 -1 -1 -1 -1 2 3 -1 -1 -1 -1 -1 -1 -1 -1 -1 -1 -1 -1 -1 -1 -1 -1 -1 -1 -1 -1 -1 -1 -1 -1 -1 -1 -1
-1 -1 -1 -1 -1 -1 -1 -1 -1 -1 -1 -1 -1 -1 -1 -1 -1 -1 -1 3 -1 -1 -1 -1 -1 -1 4 0 1 -1 -1 -1 -1 -1 -1 2 3 -1 -1 -1 -1 -1 -1 -1 -1 -1 -1 -1 -1 -1 -1 -1 -1 -1 -1 -1 -1 -1 -1 -1 -1 -1 -1 -1
-1 -1 -1 -1 -1 -1 -1 -1 -1 -1 -1 -1 -1 -1 -1 -1 -1 -1 -1 3 -1 -1 -1 -1 -1 -1 4 0 1 2 -1 -1 -1 -1 -1 2 3 -1 -1 -1 -1 -1 -1 -1 -1 -1 -1 -1 -1 -1 -1 -1 -1 -1 -1 -1 -1 -1 -1 -1 -1 -1 -1 -1
-1 -1 -1 -1 -1 -1 -1 -1 -1 -1 -1 -1 -1 -1 -1 -1 -1 -1 -1 3 -1 -1 -1 -1 -1 -1 4 0 1 2 -1 -1 -1 -1 1 2 3 -1 -1 -1 -1 -1 -1 -1 -1 -1 -1 -1 -1 -1 -1 -1 -1 -1 -1 -1 -1 -1 -1 -1 -1 -1 -1 -1
-1 -1 -1 -1 -1 -1 -1 -1 -1 -1 -1 -1 -1 -1 -1 -1 -1 -1 -1 3 -1 -1 -1 -1 -1 -1 4 0 1 2 -1 -1 -1 -1 1 2 3 -1 -1 -1 -1 -1 -1 -1 0 -1 -1 -1 -1 -1 -1 -1 -1 -1 -1 -1 -1 -1 -1 -1 -1 -1 -1 -1
-1 -1 -1 -1 -1 -1 -1 -1 -1 -1 -1 -1 -1 -1 -1 -1 -1 -1 2 3 -1 -1 -1 -1 -1 -1 4 0 1 2 -1 -1 -1 -1 1 2 3 -1 -1 -1 -1 -1 -1 -1 0 -1 -1 -1 -1 -1 -1 -1 -1 -1 -1 -1 -1 -1 -1 -1 -1 -1 -1 -1
-1 -1 -1 -1 -1 -1 -1 -1 -1 -1 -1 -1 -1 -1 -1 -1 -1 -1 2 3 -1 -1 -1 -1 -1 -1 4 0 1 2 -1 -1 -1 -1 1 2 3 -1 -1 -1 -1 -1 3 -1 0 -1 -1 -1 -1 -1 -1 -1 -1 -1 -1 -1 -1 -1 -1 -1 -1 -1 -1 -1
-1 -1 -1 -1 -1 -1 -1 -1 -1 -1 -1 -1 -1 -1 -1 -1 -1 -1 2 3 -1 -1 -1 -1 5 -1 4 0 1 2 -1 -1 -1 -1 1 2 3 -1 -1 -1 -1 -1 3 -1 0 -1 -1 -1 -1 -1 -1 -1 -1 -1 -1 -1 -1 -1 -1 -1 -1 -1 -1 -1
-1 -1 -1 -1 -1 -1 -1 -1 -1 -1 -1 -1 -1 -1 -1 -1 -1 1 2 3 -1 -1 -1 -1 5 -1 4 0 1 2 -1 -1 -1 -1 1 2 3 -1 -1 -1 -1 -1 3 -1 0 -1 -1 -1 -1 -1 -1 -1 -1 -1 -1 -1 -1 -1 -1 -1 -1 -1 -1 -1
-1 -1 -1 -1 -1 -1 -1 -1 -1 -1 -1 -1 -1 -1 -1 -1 -1 1 2 3 -1 -1 -1 -1 5 -1 4 0 1 2 3 -1 -1 -1 1 2 3 -1 -1 -1 -1 -1 3 -1 0 -1 -1 -1 -1 -1 -1 -1 -1 -1 -1 -1 -1 -1 -1 -1 -1 -1 -1 -1
-1 -1 -1 -1 -1 -1 -1 -1 -1 -1 -1 -1 -1 -1 -1 -1 -1 1 2 3 -1 -1 -1 -1 5 -1 4 0 1 2 3 6 -1 -1 1 2 3 -1 -1 -1 -1 -1 3 -1 0 -1 -1 -1 -1 -1 -1 -1 -1 -1 -1 -1 -1 -1 -1 -1 -1 -1 -1 -1
-1 -1 -1 -1 -1 -1 -1 -1 -1 -1 -1 -1 -1 -1 -1 -1 -1 1 2 3 -1 -1 -1 -1 5 7 4 0 1 2 3 6 -1 -1 1 2 3 -1 -1 -1 -1 -1 3 -1 0 -1 -1 -1 -1 -1 -1 -1 -1 -1 -1 -1 -1 -1 -1 -1 -1 -1 -1 -1
-1 -1 -1 -1 4 -1 -1 -1 -1 -1 -1 -1 -1 -1 -1 -1 -1 1 2 3 -1 -1 -1 -1 5 7 4 0 1 2 3 6 -1 -1 1 2 3 -1 -1 -1 -1 -1 3 -1 0 -1 -1 -1 -1 -1 -1 -1 -1 -1 -1 -1 -1 -1 -1 -1 -1 -1 -1 -1
-1 -1 -1 -1 4 -1 -1 -1 -1 -1 -1 -1 -1 -1 -1 -1 -1 1 2 3 -1 -1 -1 -1 5 7 4 0 1 2 3 6 -1 -1 1 2 3 -1 -1 -1 -1 -1 3 -1 0 -1 -1 -1 -1 -1 -1 -1 2 -1 -1 -1 -1 -1 -1 -1 -1 -1 -1 -1
-1 -1 -1 6 4 -1 -1 -1 -1 -1 -1 -1 -1 -1 -1 -1 -1 1 2 3 -1 -1 -1 -1 5 7 4 0 1 2 3 6 -1 -1 1 2 3 -1 -1 -1 -1 -1 3 -1 0 -1 -1 -1 -1 -1 -1 -1 2 -1 -1 -1 -1 -1 -1 -1 -1 -1 -1 -1
1 -1 -1 6 4 -1 -1 -1 -1 -1 -1 -1 -1 -1 -1 -1 -1 1 2 3 -1 -1 -1 -1 5 7 4 0 1 2 3 6 -1 -1 1 2 3 -1 -1 -1 -1 -1 3 -1 0 -1 -1 -1 -1 -1 -1 -1 2 -1 -1 -1 -1 -1 -1 -1 -1 -1 -1 -1
1 -1 -1 6 4 -1 -1 -1 -1 -1 -1 1 -1 -1 -1 -1 -1 1 2 3 -1 -1 -1 -1 5 7 4 0 1 2 3 6 -1 -1 1 2 3 -1 -1 -1 -1 -1 3 -1 0 -1 -1 -1 -1 -1 -1 -1 2 -1 -1 -1 -1 -1 -1 -1 -1 -1 -1 -1
1 -1 -1 6 4 -1 -1 -1 -1 -1 -1 1 -1 -1 -1 -1 -1 1 2 3 -1 -1 -1 -1 5 7 4 0 1 2 3 6 -1 0 1 2 3 -1 -1 -1 -1 -1 3 -1 0 -1 -1 -1 -1 -1 -1 -1 2 -1 -1 -1 -1 -1 -1 -1 -1 -1 -1 -1
1 -1 -1 6 4 -1 -1 -1 -1 -1 -1 1 -1 -1 -1 -1 -1 1 2 3 -1 -1 -1 -1 5 7 4 0 1 2 3 6 6 0 1 2 3 -1 -1 -1 -1 -1 3 -1 0 -1 -1 -1 -1 -1 -1 -1 2 -1 -1 -1 -1 -1 -1 -1 -1 -1 -1 -1
1 -1 -1 6 4 5 -1 -1 -1 -1 -1 1 -1 -1 -1 -1 -1 1 2 3 -1 -1 -1 -1 5 7 4 0 1 2 3 6 6 0 1 2 3 -1 -1 -1 -1 -1 3 -1 0 -1 -1 -1 -1 -1 -1 -1 2 -1 -1 -1 -1 -1 -1 -1 -1 -1 -1 -1
1 2 -1 6 4 5 -1 -1 -1 -1 -1 1 -1 -1 -1 -1 -1 1 2 3 -1 -1 -1 -1 5 7 4 0 1 2 3 6 6 0 1 2 3 -1 -1 -1 -1 -1 3 -1 0 -1 -1 -1 -1 -1 -1 -1 2 -1 -1 -1 -1 -1 -1 -1 -1 -1 -1 -1
1 2 -1 6 4 5 7 -1 -1 -1 -1 1 -1 -1 -1 -1 -1 1 2 3 -1 -1 -1 -1 5 7 4 0 1 2 3 6 6 0 1 2 3 -1 -1 -1 -1 -1 3 -1 0 -1 -1 -1 -1 -1 -1 -1 2 -1 -1 -1 -1 -1 -1 -1 -1 -1 -1 -1
1 2 -1 6 4 5 7 -1 -1 -1 -1 1 -1 3 -1 -1 -1 1 2 3 -1 -1 -1 -1 5 7 4 0 1 2 3 6 6 0 1 2 3 -1 -1 -1 -1 -1 3 -1 0 -1 -1 -1 -1 -1 -1 -1 2 -1 -1 -1 -1 -1 -1 -1 -1 -1 -1 -1
1 2 -1 6 4 5 7 -1 -1 -1 -1 1 -1 3 -1 -1 -1 1 2 3 -1 -1 -1 -1 5 7 4 0 1 2 3 6 6 0 1 2 3 -1 -1 -1 -1 -1 3 -1 0 -1 -1 -1 4 -1 -1 -1 2 -1 -1 -1 -1 -1 -1 -1 -1 -1 -1 -1
1 2 -1 6 4 5 7 0 -1 -1 -1 1 -1 3 -1 -1 -1 1 2 3 -1 -1 -1 -1 5 7 4 0 1 2 3 6 6 0 1 2 3 -1 -1 -1 -1 -1 3 -1 0 -1 -1 -1 4 -1 -1 -1 2 -1 -1 -1 -1 -1 -1 -1 -1 -1 -1 -1
1 2 8 6 4 5 7 0 -1 -1 -1 1 -1 3 -1 -1 -1 1 2 3 -1 -1 -1 -1 5 7 4 0 1 2 3 6 6 0 1 2 3 -1 -1 -1 -1 -1 3 -1 0 -1 -1 -1 4 -1 -1 -1 2 -1 -1 -1 -1 -1 -1 -1 -1 -1 -1 -1
1 2 8 6 4 5 7 0 -1 -1 -1 1 -1 3 -1 -1 0 1 2 3 -1 -1 -1 -1 5 7 4 0 1 2 3 6 6 0 1 2 3 -1 -1 -1 -1 -1 3 -1 0 -1 -1 -1 4 -1 -1 -1 2 -1 -1 -1 -1 -1 -1 -1 -1 -1 -1 -1
1 2 8 6 4 5 7 0 -1 -1 -1 1 -1 3 -1 -1 0 1 2 3 -1 -1 5 -1 5 7 4 0 1 2 3 6 6 0 1 2 3 -1 -1 -1 -1 -1 3 -1 0 -1 -1 -1 4 -1 -1 -1 2 -1 -1 -1 -1 -1 -1 -1 -1 -1 -1 -1
1 2 8 6 4 5 7 0 -1 -1 -1 1 -1 3 -1 -1 0 1 2 3 -1 -1 5 -1 5 7 4 0 1 2 3 6 6 0 1 2 3 -1 4 -1 -1 -1 3 -1 0 -1 -1 -1 4 -1 -1 -1 2 -1 -1 -1 -1 -1 -1 -1 -1 -1 -1 -1
1 2 8 6 4 5 7 0 -1 -1 -1 1 -1 3 -1 -1 0 1 2 3 6 -1 5 -1 5 7 4 0 1 2 3 6 6 0 1 2 3 -1 4 -1 -1 -1 3 -1 0 -1 -1 -1 4 -1 -1 -1 2 -1 -1 -1 -1 -1 -1 -1 -1 -1 -1 -1
1 2 8 6 4 5 7 0 -1 -1 -1 1 -1 3 -1 -1 0 1 2 3 6 -1 5 -1 5 7 4 0 1 2 3 6 6 0 1 2 3 -1 4 -1 -1 -1 3 -1 0 -1 6 -1 4 -1 -1 -1 2 -1 -1 -1 -1 -1 -1 -1 -1 -1 -1 -1
1 2 8 6 4 5 7 0 -1 -1 -1 1 -1 3 -1 -1 0 1 2 3 6 -1 5 -1 5 7 4 0 1 2 3 6 6 0 1 2 3 -1 4 -1 -1 -1 3 -1 0 -1 6 -1 4 -1 -1 -1 2 -1 8 -1 -1 -1 -1 -1 -1 -1 -1 -1
1 2 8 6 4 5 7 0 -1 -1 -1 1 -1 3 -1 -1 0 1 2 3 6 -1 5 -1 5 7 4 0 1 2 3 6 6 0 1 2 3 -1 4 -1 -1 -1 3 -1 0 -1 6 -1 4 -1 -1 -1 2 -1 8 -1 -1 -1 -1 -1 -1 -1 9 -1
1 2 8 6 4 5 7 0 -1 -1 -1 1 -1 3 10 -1 0 1 2 3 6 -1 5 -1 5 7 4 0 1 2 3 6 6 0 1 2 3 -1 4 -1 -1 -1 3 -1 0 -1 6 -1 4 -1 -1 -1 2 -1 8 -1 -1 -1 -1 -1 -1 -1 9 -1
1 2 8 6 4 5 7 0 -1 -1 -1 1 -1 3 10 -1 0 1 2 3 6 -1 5 -1 5 7 4 0 1 2 3 6 6 0 1 2 3 -1 4 -1 -1 -1 3 -1 0 -1 6 -1 4 -1 -1 -1 2 7 8 -1 -1 -1 -1 -1 -1 -1 9 -1
1 2 8 6 4 5 7 0 8 -1 -1 1 -1 3 10 -1 0 1 2 3 6 -1 5 -1 5 7 4 0 1 2 3 6 6 0 1 2 3 -1 4 -1 -1 -1 3 -1 0 -1 6 -1 4 -1 -1 -1 2 7 8 -1 -1 -1 -1 -1 -1 -1 9 -1
1 2 8 6 4 5 7 0 8 -1 -1 1 -1 3 10 -1 0 1 2 3 6 -1 5 -1 5 7 4 0 1 2 3 6 6 0 1 2 3 -1 4 -1 -1 -1 3 -1 0 -1 6 -1 4 -1 -1 -1 2 7 8 -1 7 -1 -1 -1 -1 -1 9 -1
1 2 8 6 4 5 7 0 8 -1 -1 1 -1 3 10 4 0 1 2 3 6 -1 5 -1 5 7 4 0 1 2 3 6 6 0 1 2 3 -1 4 -1 -1 -1 3 -1 0 -1 6 -1 4 -1 -1 -1 2 7 8 -1 7 -1 -1 -1 -1 -1 9 -1
1 2 8 6 4 5 7 0 8 -1 -1 1 -1 3 10 4 0 1 2 3 6 -1 5 -1 5 7 4 0 1 2 3 6 6 0 1 2 3 -1 4 -1 -1 -1 3 -1 0 -1 6 -1 4 -1 -1 -1 2 7 8 -1 7 -1 -1 -1 -1 -1 9 5
1 2 8 6 4 5 7 0 8 -1 -1 1 -1 3 10 4 0 1 2 3 6 -1 5 -1 5 7 4 0 1 2 3 6 6 0 1 2 3 -1 4 -1 -1 -1 3 -1 0 -1 6 -1 4 -1 -1 -1 2 7 8 10 7 -1 -1 -1 -1 -1 9 5
1 2 8 6 4 5 7 0 8 -1 -1 1 -1 3 10 4 0 1 2 3 6 -1 5 -1 5 7 4 0 1 2 3 6 6 0 1 2 3 -1 4 -1 -1 -1 3 -1 0 -1 6 -1 4 -1 -1 9 2 7 8 10 7 -1 -1 -1 -1 -1 9 5
1 2 8 6 4 5 7 0 8 -1 -1 1 -1 3 10 4 0 1 2 3 6 -1 5 -1 5 7 4 0 1 2 3 6 6 0 1 2 3 8 4 -1 -1 -1 3 -1 0 -1 6 -1 4 -1 -1 9 2 7 8 10 7 -1 -1 -1 -1 -1 9 5
1 2 8 6 4 5 7 0 8 -1 -1 1 -1 3 10 4 0 1 2 3 6 -1 5 -1 5 7 4 0 1 2 3 6 6 0 1 2 3 8 4 -1 -1 -1 3 -1 0 -1 6 -1 4 -1 0 9 2 7 8 10 7 -1 -1 -1 -1 -1 9 5
1 2 8 6 4 5 7 0 8 -1 -1 1 -1 3 10 4 0 1 2 3 6 -1 5 -1 5 7 4 0 1 2 3 6 6 0 1 2 3 8 4 9 -1 -1 3 -1 0 -1 6 -1 4 -1 0 9 2 7 8 10 7 -1 -1 -1 -1 -1 9 5
1 2 8 6 4 5 7 0 8 -1 -1 1 -1 3 10 4 0 1 2 3 6 -1 5 -1 5 7 4 0 1 2 3 6 6 0 1 2 3 8 4 9 -1 -1 3 -1 0 -1 6 7 4 -1 0 9 2 7 8 10 7 -1 -1 -1 -1 -1 9 5
1 2 8 6 4 5 7 0 8 -1 -1 1 -1 3 10 4 0 1 2 3 6 -1 5 11 5 7 4 0 1 2 3 6 6 0 1 2 3 8 4 9 -1 -1 3 -1 0 -1 6 7 4 -1 0 9 2 7 8 10 7 -1 -1 -1 -1 -1 9 5
1 2 8 6 4 5 7 0 8 -1 -1 1 -1 3 10 4 0 1 2 3 6 4 5 11 5 7 4 0 1 2 3 6 6 0 1 2 3 8 4 9 -1 -1 3 -1 0 -1 6 7 4 -1 0 9 2 7 8 10 7 -1 -1 -1 -1 -1 9 5
1 2 8 6 4 5 7 0 8 -1 -1 1 -1 3 10 4 0 1 2 3 6 4 5 11 5 7 4 0 1 2 3 6 6 0 1 2 3 8 4 9 -1 -1 3 -1 0 -1 6 7 4 -1 0 9 2 7 8 10 7 -1 6 -1 -1 -1 9 5
1 2 8 6 4 5 7 0 8 -1 -1 1 -1 3 10 4 0 1 2 3 6 4 5 11 5 7 4 0 1 2 3 6 6 0 1 2 3 8 4 9 -1 -1 3 -1 0 -1 6 7 4 -1 0 9 2 7 8 10 7 -1 6 -1 -1 10 9 5
1 2 8 6 4 5 7 0 8 -1 -1 1 -1 3 10 4 0 1 2 3 6 4 5 11 5 7 4 0 1 2 3 6 6 0 1 2 3 8 4 9 -1 -1 3 -1 0 -1 6 7 4 -1 0 9 2 7 8 10 7 8 6 -1 -1 10 9 5
1 2 8 6 4 5 7 0 8 -1 -1 1 -1 3 10 4 0 1 2 3 6 4 5 11 5 7 4 0 1 2 3 6 6 0 1 2 3 8 4 9 -1 -1 3 11 0 -1 6 7 4 -1 0 9 2 7 8 10 7 8 6 -1 -1 10 9 5
1 2 8 6 4 5 7 0 8 -1 -1 1 -1 3 10 4 0 1 2 3 6 4 5 11 5 7 4 0 1 2 3 6 6 0 1 2 3 8 4 9 -1 -1 3 11 0 -1 6 7 4 -1 0 9 2 7 8 10 7 8 6 12 -1 10 9 5
1 2 8 6 4 5 7 0 8 -1 -1 1 -1 3 10 4 0 1 2 3 6 4 5 11 5 7 4 0 1 2 3 6 6 0 1 2 3 8 4 9 -1 -1 3 11 0 9 6 7 4 -1 0 9 2 7 8 10 7 8 6 12 -1 10 9 5
1 2 8 6 4 5 7 0 8 -1 -1 1 -1 3 10 4 0 1 2 3 6 4 5 11 5 7 4 0 1 2 3 6 6 0 1 2 3 8 4 9 -1 -1 3 11 0 9 6 7 4 -1 0 9 2 7 8 10 7 8 6 12 11 10 9 5
1 2 8 6 4 5 7 0 8 -1 -1 1 7 3 10 4 0 1 2 3 6 4 5 11 5 7 4 0 1 2 3 6 6 0 1 2 3 8 4 9 -1 -1 3 11 0 9 6 7 4 -1 0 9 2 7 8 10 7 8 6 12 11 10 9 5
1 2 8 6 4 5 7 0 8 -1 -1 1 7 3 10 4 0 1 2 3 6 4 5 11 5 7 4 0 1 2 3 6 6 0 1 2 3 8 4 9 -1 5 3 11 0 9 6 7 4 -1 0 9 2 7 8 10 7 8 6 12 11 10 9 5
1 2 8 6 4 5 7 0 8 -1 -1 1 7 3 10 4 0 1 2 3 6 4 5 11 5 7 4 0 1 2 3 6 6 0 1 2 3 8 4 9 -1 5 3 11 0 9 6 7 4 11 0 9 2 7 8 10 7 8 6 12 11 10 9 5
1 2 8 6 4 5 7 0 8 6 -1 1 7 3 10 4 0 1 2 3 6 4 5 11 5 7 4 0 1 2 3 6 6 0 1 2 3 8 4 9 -1 5 3 11 0 9 6 7 4 11 0 9 2 7 8 10 7 8 6 12 11 10 9 5
1 2 8 6 4 5 7 0 8 6 9 1 7 3 10 4 0 1 2 3 6 4 5 11 5 7 4 0 1 2 3 6 6 0 1 2 3 8 4 9 -1 5 3 11 0 9 6 7 4 11 0 9 2 7 8 10 7 8 6 12 11 10 9 5
1 2 8 6 4 5 7 0 8 6 9 1 7 3 10 4 0 1 2 3 6 4 5 11 5 7 4 0 1 2 3 6 6 0 1 2 3 8 4 9 2 5 3 11 0 9 6 7 4 11 0 9 2 7 8 10 7 8 6 12 11 10 9 5
